COLUMNS

passenger_count
pickup_ID
dropoff_ID
request_time_sec
pickup_district
dropoff_district
LDuals
IDuals
vehicle_ID
pick_position
drop_position

REQUESTS_INFO
1      220       296       29123     87        277       108       108       108       1         2         
1      666       457       29102     131       52        126       126       227       1         2         
1      529       20        29123     189       98        98        98        477       1         2         
1      633       765       29126     189       290       110       110       567       1         2         
1      1225      875       29080     192       291       127       127       594       1         2         
1      726       863       29070     290       290       148       148       655       1         2         
1      398       394       29129     168       100       141       141       748       1         3         
3      351       523       29131     52        52        0         0         0         0         0         
3      351       523       29131     52        52        0         0         0         0         0         
1      512       116       29131     199       9         0         0         0         0         0         
1      703       864       29132     290       290       0         0         0         0         0         
1      535       442       29132     189       168       0         0         0         0         0         
3      604       768       29133     189       290       0         0         0         0         0         
2      913       972       29134     291       290       0         0         0         0         0         
2      1057      858       29135     84        290       0         0         0         0         0         
1      699       738       29137     290       189       0         0         0         0         0         
1      701       559       29137     290       189       0         0         0         0         0         
1      356       772       29137     119       290       0         0         0         0         0         
1      118       527       29139     286       52        0         0         0         0         0         
2      770       180       29139     290       178       0         0         0         0         0         
1      743       527       29140     290       52        0         0         0         0         0         
1      958       777       29141     291       131       0         0         0         0         0         
1      767       621       29141     290       280       0         0         0         0         0         
1      194       393       29142     207       52        0         0         0         0         0         
1      1149      1265      29143     291       192       0         0         0         0         0         
1      171       273       29143     286       206       0         0         0         0         0         
1      1199      749       29143     84        290       0         0         0         0         0         
1      511       727       29145     199       290       0         0         0         0         0         
1      668       668       29146     280       280       0         0         0         0         0         
1      1026      748       29147     291       290       0         0         0         0         0         
1      701       228       29148     290       266       0         0         0         0         0         
1      352       865       29148     119       290       0         0         0         0         0         
1      715       644       29150     131       131       0         0         0         0         0         
1      457       394       29150     52        100       0         0         0         0         0         
1      768       453       29151     290       52        0         0         0         0         0         
1      906       289       29152     290       127       0         0         0         0         0         
1      527       421       29152     52        168       0         0         0         0         0         
1      789       656       29154     290       290       0         0         0         0         0         
1      722       193       29154     290       266       0         0         0         0         0         
1      675       527       29154     189       52        0         0         0         0         0         
3      527       625       29154     52        189       0         0         0         0         0         
3      527       625       29154     52        189       0         0         0         0         0         
3      1192      893       29154     129       291       0         0         0         0         0         
2      1192      893       29154     129       291       0         0         0         0         0         
1      483       776       29156     189       131       0         0         0         0         0         
1      508       789       29157     199       290       0         0         0         0         0         
1      396       415       29157     119       100       0         0         0         0         0         
1      1117      675       29159     84        189       0         0         0         0         0         
1      349       268       29159     127       299       0         0         0         0         0         
